NAME: tsp30_15
COMMENT: 30-tsp problem (Padberg/Rinaldi)
TYPE: TSP
DIMENSION: 30
EDGE_WEIGHT_TYPE : EUC_2D
NODE_COORD_SECTION
1.00 11.23 24.79
2.00 0.87 34.37
3.00 17.32 14.59
4.00 26.20 24.54
5.00 19.48 3.70
6.00 13.24 36.40
7.00 6.73 19.62
8.00 30.83 0.47
9.00 9.70 34.91
10.00 2.02 22.86
11.00 2.65 16.47
12.00 26.66 11.15
13.00 8.47 22.54
14.00 11.91 34.01
15.00 35.83 6.96
16.00 3.83 2.98
17.00 37.85 34.17
18.00 8.33 20.59
19.00 30.26 34.31
20.00 16.96 1.43
21.00 27.49 23.36
22.00 25.23 3.25
23.00 27.35 10.90
24.00 25.20 30.33
25.00 38.47 38.23
26.00 2.85 1.02
27.00 24.23 7.01
28.00 22.57 9.72
29.00 32.46 26.46
30.00 31.68 18.26
